1656861
32,56,40,5,29,25,30,41,6,60,23,49,19,54,65,45,27,17,36,59,16,63,21,38,7,67,64,11,66,26,55,34,46,43,31,22,52,33,57,18,10,14,44,28,50,37,62,39,51,35,53,68,8,15,58,9,2,48,4,20,13,47,1,24,61,3,42,12